\ENCODING=ISO-8859-1
\Problem name: IloCplex

Minimize
 obj1: 1000000 y0 + 1000000 y1 + 1000000 y2 + 1000000 y3 + 1000000 y4 + x6 + x7
       + x8 + x9 + x10
Subject To
 c1: y0 + x6 + x7  = 1
 c2: y1 + x7 + x8  = 1
 c3: y2 + x6 + x8  = 1
 c4: y3 + x9  = 1
 c5: y4 + x10  = 1
End
